(set-logic QF_NRA)
(set-info :source |
SMT script generated by Ultimate LassoRanker [1]
Ultimate LassoRanker is a tool that synthesizes ranking functions for 
linear lasso programs and implements the techniques presented in [2] and [3].
For generating these SMT scripts Ultimate LassoRanker was used as a sub 
procedure of the termination analyzer Ultimate BuchiAutomizer [4] which 
implements the techniques presented in [5].

This SMT script belongs to a set of SMT scripts that was generated by applying
revision 11505 of BuchiAutomizer to
- the benchmarks from the demonstration category on termination of the SV-COMP 
2014 [6] available at [7],
- the benchmarks from [8] which are available at [9] and,
- benchmarks from the repository of Ultimate LassoRanker.
This set of SMT scripts contains only SMT scripts that we considered to be 
difficult because LassoRanker run into a timeout after 10 seconds.

2014-05-03, Matthias Heizmann (heizmann@informatik.uni-freiburg.de)


[1] http://ultimate.informatik.uni-freiburg.de/LassoRanker/
[2] Jan Leike and Matthias Heizmann. Ranking Templates for Linear Loops. In 
TACAS 2014.
[3] Matthias Heizmann, Jochen Hoenicke, Jan Leike and Andreas Podelski. Linear 
Ranking for Linear Lasso Programs. In ATVA 2013.
[4] http://ultimate.informatik.uni-freiburg.de/BuchiAutomizer/
[5] Matthias Heizmann, Jochen Hoenicke and Andreas Podelski. Termination 
Analysis by Learning Terminating Programs. Accepted at CAV 2014
[6] Dirk Beyer: Status Report on Software Verification - (Competition Summary 
SV-COMP 2014). TACAS 2014
[7] https://svn.sosy-lab.org/software/sv-benchmarks/trunk/c/termination-crafted/
[8] Marc Brockschmidt, Byron Cook, Carsten Fuhs: Better Termination Proving 
through Cooperation. CAV 2013:413-429
[9] http://verify.rwth-aachen.de/brockschmidt/Cooperating-T2/
|)
(set-info :smt-lib-version 2.0)
(set-info :category "industrial")
(set-info :status sat)
(declare-fun delta0 () Real)
(assert (> delta0 0.0))
(declare-fun rank0c () Real)
(declare-fun rank0_Benghazi_x () Real)
(declare-fun rank0_Benghazi_d2 () Real)
(declare-fun rank0_Benghazi_d1 () Real)
(declare-fun delta1 () Real)
(assert (> delta1 0.0))
(declare-fun rank1c () Real)
(declare-fun rank1_Benghazi_x () Real)
(declare-fun rank1_Benghazi_d2 () Real)
(declare-fun rank1_Benghazi_d1 () Real)
(declare-fun delta2 () Real)
(assert (> delta2 0.0))
(declare-fun rank2c () Real)
(declare-fun rank2_Benghazi_x () Real)
(declare-fun rank2_Benghazi_d2 () Real)
(declare-fun rank2_Benghazi_d1 () Real)
(declare-fun delta3 () Real)
(assert (> delta3 0.0))
(declare-fun rank3c () Real)
(declare-fun rank3_Benghazi_x () Real)
(declare-fun rank3_Benghazi_d2 () Real)
(declare-fun rank3_Benghazi_d1 () Real)
(declare-fun delta4 () Real)
(assert (> delta4 0.0))
(declare-fun rank4c () Real)
(declare-fun rank4_Benghazi_x () Real)
(declare-fun rank4_Benghazi_d2 () Real)
(declare-fun rank4_Benghazi_d1 () Real)
(declare-fun delta5 () Real)
(assert (> delta5 0.0))
(declare-fun rank5c () Real)
(declare-fun rank5_Benghazi_x () Real)
(declare-fun rank5_Benghazi_d2 () Real)
(declare-fun rank5_Benghazi_d1 () Real)
(declare-fun si213c () Real)
(declare-fun motzkin_212_0 () Real)
(declare-fun motzkin_212_1 () Real)
(declare-fun motzkin_212_2 () Real)
(declare-fun motzkin_212_3 () Real)
(declare-fun motzkin_212_4 () Real)
(declare-fun motzkin_212_5 () Real)
(declare-fun motzkin_212_6 () Real)
(declare-fun motzkin_212_7 () Real)
(declare-fun motzkin_212_8 () Real)
(declare-fun motzkin_212_9 () Real)
(declare-fun motzkin_212_10 () Real)
(declare-fun motzkin_212_11 () Real)
(declare-fun motzkin_212_12 () Real)
(declare-fun motzkin_212_13 () Real)
(declare-fun si215c () Real)
(declare-fun motzkin_214_0 () Real)
(declare-fun motzkin_214_1 () Real)
(declare-fun motzkin_214_2 () Real)
(declare-fun motzkin_214_3 () Real)
(declare-fun motzkin_214_4 () Real)
(declare-fun motzkin_214_5 () Real)
(declare-fun motzkin_214_6 () Real)
(declare-fun motzkin_214_7 () Real)
(declare-fun motzkin_214_8 () Real)
(declare-fun si217c () Real)
(declare-fun motzkin_216_0 () Real)
(declare-fun motzkin_216_1 () Real)
(declare-fun motzkin_216_2 () Real)
(declare-fun motzkin_216_3 () Real)
(declare-fun motzkin_216_4 () Real)
(declare-fun motzkin_216_5 () Real)
(declare-fun motzkin_216_6 () Real)
(declare-fun motzkin_216_7 () Real)
(declare-fun motzkin_216_8 () Real)
(declare-fun motzkin_216_9 () Real)
(declare-fun si219c () Real)
(declare-fun motzkin_218_0 () Real)
(declare-fun motzkin_218_1 () Real)
(declare-fun motzkin_218_2 () Real)
(declare-fun motzkin_218_3 () Real)
(declare-fun motzkin_218_4 () Real)
(declare-fun motzkin_218_5 () Real)
(declare-fun motzkin_218_6 () Real)
(declare-fun motzkin_218_7 () Real)
(declare-fun motzkin_218_8 () Real)
(declare-fun motzkin_218_9 () Real)
(declare-fun motzkin_218_10 () Real)
(declare-fun si221c () Real)
(declare-fun motzkin_220_0 () Real)
(declare-fun motzkin_220_1 () Real)
(declare-fun motzkin_220_2 () Real)
(declare-fun motzkin_220_3 () Real)
(declare-fun motzkin_220_4 () Real)
(declare-fun motzkin_220_5 () Real)
(declare-fun motzkin_220_6 () Real)
(declare-fun motzkin_220_7 () Real)
(declare-fun motzkin_220_8 () Real)
(declare-fun motzkin_220_9 () Real)
(declare-fun motzkin_220_10 () Real)
(declare-fun motzkin_220_11 () Real)
(declare-fun si223c () Real)
(declare-fun motzkin_222_0 () Real)
(declare-fun motzkin_222_1 () Real)
(declare-fun motzkin_222_2 () Real)
(declare-fun motzkin_222_3 () Real)
(declare-fun motzkin_222_4 () Real)
(declare-fun motzkin_222_5 () Real)
(declare-fun motzkin_222_6 () Real)
(declare-fun motzkin_222_7 () Real)
(declare-fun motzkin_222_8 () Real)
(declare-fun motzkin_222_9 () Real)
(declare-fun motzkin_222_10 () Real)
(declare-fun motzkin_222_11 () Real)
(declare-fun motzkin_222_12 () Real)
(declare-fun si225c () Real)
(declare-fun motzkin_224_0 () Real)
(declare-fun motzkin_224_1 () Real)
(declare-fun motzkin_224_2 () Real)
(declare-fun motzkin_224_3 () Real)
(declare-fun motzkin_224_4 () Real)
(declare-fun motzkin_224_5 () Real)
(declare-fun motzkin_224_6 () Real)
(declare-fun motzkin_224_7 () Real)
(declare-fun motzkin_224_8 () Real)
(declare-fun motzkin_224_9 () Real)
(declare-fun motzkin_224_10 () Real)
(declare-fun motzkin_224_11 () Real)
(declare-fun motzkin_224_12 () Real)
(declare-fun motzkin_224_13 () Real)
(declare-fun motzkin_226_0 () Real)
(declare-fun motzkin_226_1 () Real)
(declare-fun motzkin_227_0 () Real)
(declare-fun motzkin_227_1 () Real)
(declare-fun motzkin_227_2 () Real)
(declare-fun motzkin_227_3 () Real)
(declare-fun motzkin_227_4 () Real)
(declare-fun motzkin_227_5 () Real)
(declare-fun motzkin_227_6 () Real)
(declare-fun motzkin_227_7 () Real)
(declare-fun motzkin_227_8 () Real)
(declare-fun motzkin_228_0 () Real)
(declare-fun motzkin_228_1 () Real)
(declare-fun motzkin_229_0 () Real)
(declare-fun motzkin_229_1 () Real)
(declare-fun motzkin_229_2 () Real)
(declare-fun motzkin_229_3 () Real)
(declare-fun motzkin_229_4 () Real)
(declare-fun motzkin_229_5 () Real)
(declare-fun motzkin_229_6 () Real)
(declare-fun motzkin_229_7 () Real)
(declare-fun motzkin_229_8 () Real)
(declare-fun motzkin_230_0 () Real)
(declare-fun motzkin_230_1 () Real)
(declare-fun motzkin_231_0 () Real)
(declare-fun motzkin_231_1 () Real)
(declare-fun motzkin_231_2 () Real)
(declare-fun motzkin_231_3 () Real)
(declare-fun motzkin_231_4 () Real)
(declare-fun motzkin_231_5 () Real)
(declare-fun motzkin_231_6 () Real)
(declare-fun motzkin_231_7 () Real)
(declare-fun motzkin_231_8 () Real)
(declare-fun motzkin_232_0 () Real)
(declare-fun motzkin_232_1 () Real)
(declare-fun motzkin_233_0 () Real)
(declare-fun motzkin_233_1 () Real)
(declare-fun motzkin_233_2 () Real)
(declare-fun motzkin_233_3 () Real)
(declare-fun motzkin_233_4 () Real)
(declare-fun motzkin_233_5 () Real)
(declare-fun motzkin_233_6 () Real)
(declare-fun motzkin_233_7 () Real)
(declare-fun motzkin_233_8 () Real)
(declare-fun motzkin_234_0 () Real)
(declare-fun motzkin_234_1 () Real)
(declare-fun motzkin_235_0 () Real)
(declare-fun motzkin_235_1 () Real)
(declare-fun motzkin_235_2 () Real)
(declare-fun motzkin_235_3 () Real)
(declare-fun motzkin_235_4 () Real)
(declare-fun motzkin_235_5 () Real)
(declare-fun motzkin_235_6 () Real)
(declare-fun motzkin_235_7 () Real)
(declare-fun motzkin_235_8 () Real)
(declare-fun motzkin_236_0 () Real)
(declare-fun motzkin_236_1 () Real)
(declare-fun motzkin_237_0 () Real)
(declare-fun motzkin_237_1 () Real)
(declare-fun motzkin_237_2 () Real)
(declare-fun motzkin_237_3 () Real)
(declare-fun motzkin_237_4 () Real)
(declare-fun motzkin_237_5 () Real)
(declare-fun motzkin_237_6 () Real)
(declare-fun motzkin_237_7 () Real)
(declare-fun motzkin_237_8 () Real)
(declare-fun motzkin_238_0 () Real)
(declare-fun motzkin_238_1 () Real)
(declare-fun motzkin_239_0 () Real)
(declare-fun motzkin_239_1 () Real)
(declare-fun motzkin_239_2 () Real)
(declare-fun motzkin_239_3 () Real)
(declare-fun motzkin_239_4 () Real)
(declare-fun motzkin_239_5 () Real)
(declare-fun motzkin_239_6 () Real)
(declare-fun motzkin_239_7 () Real)
(declare-fun motzkin_239_8 () Real)
(assert (let ((?v_0 0.0) (?v_5 1.0) (?v_1 (* motzkin_212_0 (- 1))) (?v_3 (* motzkin_212_5 (- 1))) (?v_2 (* motzkin_212_2 (- 1)))) (let ((?v_4 (+ ?v_2 motzkin_212_3 ?v_3 motzkin_212_6 (* motzkin_212_7 (+ (* (- 1) rank0c) ?v_0)) (* motzkin_212_8 (+ (* (- 1) rank1c) ?v_0)) (* motzkin_212_9 (+ (* (- 1) rank2c) ?v_0)) (* motzkin_212_10 (+ (* (- 1) rank3c) ?v_0)) (* motzkin_212_11 (+ (* (- 1) rank4c) ?v_0)) (* motzkin_212_12 (+ (* (- 1) rank5c) ?v_0)) (* motzkin_212_13 (+ (* ?v_5 si213c) ?v_0))))) (and (>= motzkin_212_0 ?v_0) (>= motzkin_212_1 ?v_0) (>= motzkin_212_2 ?v_0) (>= motzkin_212_3 ?v_0) (>= motzkin_212_4 ?v_0) (>= motzkin_212_5 ?v_0) (>= motzkin_212_6 ?v_0) (>= motzkin_212_7 ?v_0) (>= motzkin_212_8 ?v_0) (>= motzkin_212_9 ?v_0) (>= motzkin_212_10 ?v_0) (>= motzkin_212_11 ?v_0) (>= motzkin_212_12 ?v_0) (>= motzkin_212_13 ?v_0) (= (+ ?v_1 motzkin_212_1) ?v_0) (= (+ motzkin_212_0 (* motzkin_212_1 (- 1)) motzkin_212_4 (* motzkin_212_7 (+ (* (- 1) rank0_Benghazi_x) ?v_0)) (* motzkin_212_8 (+ (* (- 1) rank1_Benghazi_x) ?v_0)) (* motzkin_212_9 (+ (* (- 1) rank2_Benghazi_x) ?v_0)) (* motzkin_212_10 (+ (* (- 1) rank3_Benghazi_x) ?v_0)) (* motzkin_212_11 (+ (* (- 1) rank4_Benghazi_x) ?v_0)) (* motzkin_212_12 (+ (* (- 1) rank5_Benghazi_x) ?v_0))) ?v_0) (= (+ ?v_1 motzkin_212_1 (* motzkin_212_7 (+ (* (- 1) rank0_Benghazi_d1) ?v_0)) (* motzkin_212_8 (+ (* (- 1) rank1_Benghazi_d1) ?v_0)) (* motzkin_212_9 (+ (* (- 1) rank2_Benghazi_d1) ?v_0)) (* motzkin_212_10 (+ (* (- 1) rank3_Benghazi_d1) ?v_0)) (* motzkin_212_11 (+ (* (- 1) rank4_Benghazi_d1) ?v_0)) (* motzkin_212_12 (+ (* (- 1) rank5_Benghazi_d1) ?v_0))) ?v_0) (= (+ motzkin_212_2 (* motzkin_212_3 (- 1)) ?v_3 motzkin_212_6) ?v_0) (= (+ ?v_2 motzkin_212_3 (* motzkin_212_7 (+ (* (- 1) rank0_Benghazi_d2) ?v_0)) (* motzkin_212_8 (+ (* (- 1) rank1_Benghazi_d2) ?v_0)) (* motzkin_212_9 (+ (* (- 1) rank2_Benghazi_d2) ?v_0)) (* motzkin_212_10 (+ (* (- 1) rank3_Benghazi_d2) ?v_0)) (* motzkin_212_11 (+ (* (- 1) rank4_Benghazi_d2) ?v_0)) (* motzkin_212_12 (+ (* (- 1) rank5_Benghazi_d2) ?v_0))) ?v_0) (= (+ motzkin_212_5 (* motzkin_212_6 (- 1))) ?v_0) (<= ?v_4 ?v_0) (or (< ?v_4 ?v_0) (> ?v_0 ?v_0)) (or (= motzkin_212_7 ?v_0) (= motzkin_212_7 ?v_5)) (or (= motzkin_212_8 ?v_0) (= motzkin_212_8 ?v_5)) (or (= motzkin_212_9 ?v_0) (= motzkin_212_9 ?v_5)) (or (= motzkin_212_10 ?v_0) (= motzkin_212_10 ?v_5)) (or (= motzkin_212_11 ?v_0) (= motzkin_212_11 ?v_5)) (or (= motzkin_212_12 ?v_0) (= motzkin_212_12 ?v_5)) (= motzkin_212_13 ?v_5)))))
(assert (let ((?v_0 0.0) (?v_2 1.0) (?v_1 (* motzkin_214_0 (- 1))) (?v_4 (* motzkin_214_5 (- 1))) (?v_3 (* motzkin_214_2 (- 1)))) (let ((?v_5 (+ ?v_3 motzkin_214_3 ?v_4 motzkin_214_6 (* motzkin_214_7 (+ (* ?v_2 delta0) ?v_0)) (* motzkin_214_8 (+ (* ?v_2 si215c) ?v_0))))) (and (>= motzkin_214_0 ?v_0) (>= motzkin_214_1 ?v_0) (>= motzkin_214_2 ?v_0) (>= motzkin_214_3 ?v_0) (>= motzkin_214_4 ?v_0) (>= motzkin_214_5 ?v_0) (>= motzkin_214_6 ?v_0) (>= motzkin_214_7 ?v_0) (>= motzkin_214_8 ?v_0) (= (+ ?v_1 motzkin_214_1 (* motzkin_214_7 (+ (* ?v_2 rank0_Benghazi_x) ?v_0))) ?v_0) (= (+ motzkin_214_0 (* motzkin_214_1 (- 1)) motzkin_214_4 (* motzkin_214_7 (+ (* (- 1) rank0_Benghazi_x) ?v_0))) ?v_0) (= (+ ?v_1 motzkin_214_1 (* motzkin_214_7 (+ (* (- 1) rank0_Benghazi_d1) ?v_0))) ?v_0) (= (+ motzkin_214_2 (* motzkin_214_3 (- 1)) ?v_4 motzkin_214_6 (* motzkin_214_7 (+ (* ?v_2 rank0_Benghazi_d1) ?v_0))) ?v_0) (= (+ ?v_3 motzkin_214_3 (* motzkin_214_7 (+ (* (- 1) rank0_Benghazi_d2) ?v_0))) ?v_0) (= (+ motzkin_214_5 (* motzkin_214_6 (- 1)) (* motzkin_214_7 (+ (* ?v_2 rank0_Benghazi_d2) ?v_0))) ?v_0) (<= ?v_5 ?v_0) (or (< ?v_5 ?v_0) (> ?v_0 ?v_0)) (or (= motzkin_214_7 ?v_0) (= motzkin_214_7 ?v_2)) (= motzkin_214_8 ?v_2)))))
(assert (let ((?v_0 0.0) (?v_2 1.0) (?v_1 (* motzkin_216_0 (- 1))) (?v_4 (* motzkin_216_5 (- 1))) (?v_3 (* motzkin_216_2 (- 1)))) (let ((?v_5 (+ ?v_3 motzkin_216_3 ?v_4 motzkin_216_6 (* motzkin_216_7 (+ (* ?v_2 delta1) ?v_0)) (* motzkin_216_8 (+ (* (- 1) rank0c) ?v_0)) (* motzkin_216_9 (+ (* ?v_2 si217c) ?v_0))))) (and (>= motzkin_216_0 ?v_0) (>= motzkin_216_1 ?v_0) (>= motzkin_216_2 ?v_0) (>= motzkin_216_3 ?v_0) (>= motzkin_216_4 ?v_0) (>= motzkin_216_5 ?v_0) (>= motzkin_216_6 ?v_0) (>= motzkin_216_7 ?v_0) (>= motzkin_216_8 ?v_0) (>= motzkin_216_9 ?v_0) (= (+ ?v_1 motzkin_216_1 (* motzkin_216_7 (+ (* ?v_2 rank1_Benghazi_x) ?v_0))) ?v_0) (= (+ motzkin_216_0 (* motzkin_216_1 (- 1)) motzkin_216_4 (* motzkin_216_7 (+ (* (- 1) rank1_Benghazi_x) ?v_0)) (* motzkin_216_8 (+ (* (- 1) rank0_Benghazi_x) ?v_0))) ?v_0) (= (+ ?v_1 motzkin_216_1 (* motzkin_216_7 (+ (* (- 1) rank1_Benghazi_d1) ?v_0)) (* motzkin_216_8 (+ (* (- 1) rank0_Benghazi_d1) ?v_0))) ?v_0) (= (+ motzkin_216_2 (* motzkin_216_3 (- 1)) ?v_4 motzkin_216_6 (* motzkin_216_7 (+ (* ?v_2 rank1_Benghazi_d1) ?v_0))) ?v_0) (= (+ ?v_3 motzkin_216_3 (* motzkin_216_7 (+ (* (- 1) rank1_Benghazi_d2) ?v_0)) (* motzkin_216_8 (+ (* (- 1) rank0_Benghazi_d2) ?v_0))) ?v_0) (= (+ motzkin_216_5 (* motzkin_216_6 (- 1)) (* motzkin_216_7 (+ (* ?v_2 rank1_Benghazi_d2) ?v_0))) ?v_0) (<= ?v_5 ?v_0) (or (< ?v_5 ?v_0) (> ?v_0 ?v_0)) (or (= motzkin_216_7 ?v_0) (= motzkin_216_7 ?v_2)) (or (= motzkin_216_8 ?v_0) (= motzkin_216_8 ?v_2)) (= motzkin_216_9 ?v_2)))))
(assert (let ((?v_0 0.0) (?v_2 1.0) (?v_1 (* motzkin_218_0 (- 1))) (?v_4 (* motzkin_218_5 (- 1))) (?v_3 (* motzkin_218_2 (- 1)))) (let ((?v_5 (+ ?v_3 motzkin_218_3 ?v_4 motzkin_218_6 (* motzkin_218_7 (+ (* ?v_2 delta2) ?v_0)) (* motzkin_218_8 (+ (* (- 1) rank1c) ?v_0)) (* motzkin_218_9 (+ (* (- 1) rank0c) ?v_0)) (* motzkin_218_10 (+ (* ?v_2 si219c) ?v_0))))) (and (>= motzkin_218_0 ?v_0) (>= motzkin_218_1 ?v_0) (>= motzkin_218_2 ?v_0) (>= motzkin_218_3 ?v_0) (>= motzkin_218_4 ?v_0) (>= motzkin_218_5 ?v_0) (>= motzkin_218_6 ?v_0) (>= motzkin_218_7 ?v_0) (>= motzkin_218_8 ?v_0) (>= motzkin_218_9 ?v_0) (>= motzkin_218_10 ?v_0) (= (+ ?v_1 motzkin_218_1 (* motzkin_218_7 (+ (* ?v_2 rank2_Benghazi_x) ?v_0))) ?v_0) (= (+ motzkin_218_0 (* motzkin_218_1 (- 1)) motzkin_218_4 (* motzkin_218_7 (+ (* (- 1) rank2_Benghazi_x) ?v_0)) (* motzkin_218_8 (+ (* (- 1) rank1_Benghazi_x) ?v_0)) (* motzkin_218_9 (+ (* (- 1) rank0_Benghazi_x) ?v_0))) ?v_0) (= (+ ?v_1 motzkin_218_1 (* motzkin_218_7 (+ (* (- 1) rank2_Benghazi_d1) ?v_0)) (* motzkin_218_8 (+ (* (- 1) rank1_Benghazi_d1) ?v_0)) (* motzkin_218_9 (+ (* (- 1) rank0_Benghazi_d1) ?v_0))) ?v_0) (= (+ motzkin_218_2 (* motzkin_218_3 (- 1)) ?v_4 motzkin_218_6 (* motzkin_218_7 (+ (* ?v_2 rank2_Benghazi_d1) ?v_0))) ?v_0) (= (+ ?v_3 motzkin_218_3 (* motzkin_218_7 (+ (* (- 1) rank2_Benghazi_d2) ?v_0)) (* motzkin_218_8 (+ (* (- 1) rank1_Benghazi_d2) ?v_0)) (* motzkin_218_9 (+ (* (- 1) rank0_Benghazi_d2) ?v_0))) ?v_0) (= (+ motzkin_218_5 (* motzkin_218_6 (- 1)) (* motzkin_218_7 (+ (* ?v_2 rank2_Benghazi_d2) ?v_0))) ?v_0) (<= ?v_5 ?v_0) (or (< ?v_5 ?v_0) (> ?v_0 ?v_0)) (or (= motzkin_218_7 ?v_0) (= motzkin_218_7 ?v_2)) (or (= motzkin_218_8 ?v_0) (= motzkin_218_8 ?v_2)) (or (= motzkin_218_9 ?v_0) (= motzkin_218_9 ?v_2)) (= motzkin_218_10 ?v_2)))))
(assert (let ((?v_0 0.0) (?v_2 1.0) (?v_1 (* motzkin_220_0 (- 1))) (?v_4 (* motzkin_220_5 (- 1))) (?v_3 (* motzkin_220_2 (- 1)))) (let ((?v_5 (+ ?v_3 motzkin_220_3 ?v_4 motzkin_220_6 (* motzkin_220_7 (+ (* ?v_2 delta3) ?v_0)) (* motzkin_220_8 (+ (* (- 1) rank2c) ?v_0)) (* motzkin_220_9 (+ (* (- 1) rank1c) ?v_0)) (* motzkin_220_10 (+ (* (- 1) rank0c) ?v_0)) (* motzkin_220_11 (+ (* ?v_2 si221c) ?v_0))))) (and (>= motzkin_220_0 ?v_0) (>= motzkin_220_1 ?v_0) (>= motzkin_220_2 ?v_0) (>= motzkin_220_3 ?v_0) (>= motzkin_220_4 ?v_0) (>= motzkin_220_5 ?v_0) (>= motzkin_220_6 ?v_0) (>= motzkin_220_7 ?v_0) (>= motzkin_220_8 ?v_0) (>= motzkin_220_9 ?v_0) (>= motzkin_220_10 ?v_0) (>= motzkin_220_11 ?v_0) (= (+ ?v_1 motzkin_220_1 (* motzkin_220_7 (+ (* ?v_2 rank3_Benghazi_x) ?v_0))) ?v_0) (= (+ motzkin_220_0 (* motzkin_220_1 (- 1)) motzkin_220_4 (* motzkin_220_7 (+ (* (- 1) rank3_Benghazi_x) ?v_0)) (* motzkin_220_8 (+ (* (- 1) rank2_Benghazi_x) ?v_0)) (* motzkin_220_9 (+ (* (- 1) rank1_Benghazi_x) ?v_0)) (* motzkin_220_10 (+ (* (- 1) rank0_Benghazi_x) ?v_0))) ?v_0) (= (+ ?v_1 motzkin_220_1 (* motzkin_220_7 (+ (* (- 1) rank3_Benghazi_d1) ?v_0)) (* motzkin_220_8 (+ (* (- 1) rank2_Benghazi_d1) ?v_0)) (* motzkin_220_9 (+ (* (- 1) rank1_Benghazi_d1) ?v_0)) (* motzkin_220_10 (+ (* (- 1) rank0_Benghazi_d1) ?v_0))) ?v_0) (= (+ motzkin_220_2 (* motzkin_220_3 (- 1)) ?v_4 motzkin_220_6 (* motzkin_220_7 (+ (* ?v_2 rank3_Benghazi_d1) ?v_0))) ?v_0) (= (+ ?v_3 motzkin_220_3 (* motzkin_220_7 (+ (* (- 1) rank3_Benghazi_d2) ?v_0)) (* motzkin_220_8 (+ (* (- 1) rank2_Benghazi_d2) ?v_0)) (* motzkin_220_9 (+ (* (- 1) rank1_Benghazi_d2) ?v_0)) (* motzkin_220_10 (+ (* (- 1) rank0_Benghazi_d2) ?v_0))) ?v_0) (= (+ motzkin_220_5 (* motzkin_220_6 (- 1)) (* motzkin_220_7 (+ (* ?v_2 rank3_Benghazi_d2) ?v_0))) ?v_0) (<= ?v_5 ?v_0) (or (< ?v_5 ?v_0) (> ?v_0 ?v_0)) (or (= motzkin_220_7 ?v_0) (= motzkin_220_7 ?v_2)) (or (= motzkin_220_8 ?v_0) (= motzkin_220_8 ?v_2)) (or (= motzkin_220_9 ?v_0) (= motzkin_220_9 ?v_2)) (or (= motzkin_220_10 ?v_0) (= motzkin_220_10 ?v_2)) (= motzkin_220_11 ?v_2)))))
(assert (let ((?v_0 0.0) (?v_2 1.0) (?v_1 (* motzkin_222_0 (- 1))) (?v_4 (* motzkin_222_5 (- 1))) (?v_3 (* motzkin_222_2 (- 1)))) (let ((?v_5 (+ ?v_3 motzkin_222_3 ?v_4 motzkin_222_6 (* motzkin_222_7 (+ (* ?v_2 delta4) ?v_0)) (* motzkin_222_8 (+ (* (- 1) rank3c) ?v_0)) (* motzkin_222_9 (+ (* (- 1) rank2c) ?v_0)) (* motzkin_222_10 (+ (* (- 1) rank1c) ?v_0)) (* motzkin_222_11 (+ (* (- 1) rank0c) ?v_0)) (* motzkin_222_12 (+ (* ?v_2 si223c) ?v_0))))) (and (>= motzkin_222_0 ?v_0) (>= motzkin_222_1 ?v_0) (>= motzkin_222_2 ?v_0) (>= motzkin_222_3 ?v_0) (>= motzkin_222_4 ?v_0) (>= motzkin_222_5 ?v_0) (>= motzkin_222_6 ?v_0) (>= motzkin_222_7 ?v_0) (>= motzkin_222_8 ?v_0) (>= motzkin_222_9 ?v_0) (>= motzkin_222_10 ?v_0) (>= motzkin_222_11 ?v_0) (>= motzkin_222_12 ?v_0) (= (+ ?v_1 motzkin_222_1 (* motzkin_222_7 (+ (* ?v_2 rank4_Benghazi_x) ?v_0))) ?v_0) (= (+ motzkin_222_0 (* motzkin_222_1 (- 1)) motzkin_222_4 (* motzkin_222_7 (+ (* (- 1) rank4_Benghazi_x) ?v_0)) (* motzkin_222_8 (+ (* (- 1) rank3_Benghazi_x) ?v_0)) (* motzkin_222_9 (+ (* (- 1) rank2_Benghazi_x) ?v_0)) (* motzkin_222_10 (+ (* (- 1) rank1_Benghazi_x) ?v_0)) (* motzkin_222_11 (+ (* (- 1) rank0_Benghazi_x) ?v_0))) ?v_0) (= (+ ?v_1 motzkin_222_1 (* motzkin_222_7 (+ (* (- 1) rank4_Benghazi_d1) ?v_0)) (* motzkin_222_8 (+ (* (- 1) rank3_Benghazi_d1) ?v_0)) (* motzkin_222_9 (+ (* (- 1) rank2_Benghazi_d1) ?v_0)) (* motzkin_222_10 (+ (* (- 1) rank1_Benghazi_d1) ?v_0)) (* motzkin_222_11 (+ (* (- 1) rank0_Benghazi_d1) ?v_0))) ?v_0) (= (+ motzkin_222_2 (* motzkin_222_3 (- 1)) ?v_4 motzkin_222_6 (* motzkin_222_7 (+ (* ?v_2 rank4_Benghazi_d1) ?v_0))) ?v_0) (= (+ ?v_3 motzkin_222_3 (* motzkin_222_7 (+ (* (- 1) rank4_Benghazi_d2) ?v_0)) (* motzkin_222_8 (+ (* (- 1) rank3_Benghazi_d2) ?v_0)) (* motzkin_222_9 (+ (* (- 1) rank2_Benghazi_d2) ?v_0)) (* motzkin_222_10 (+ (* (- 1) rank1_Benghazi_d2) ?v_0)) (* motzkin_222_11 (+ (* (- 1) rank0_Benghazi_d2) ?v_0))) ?v_0) (= (+ motzkin_222_5 (* motzkin_222_6 (- 1)) (* motzkin_222_7 (+ (* ?v_2 rank4_Benghazi_d2) ?v_0))) ?v_0) (<= ?v_5 ?v_0) (or (< ?v_5 ?v_0) (> ?v_0 ?v_0)) (or (= motzkin_222_7 ?v_0) (= motzkin_222_7 ?v_2)) (or (= motzkin_222_8 ?v_0) (= motzkin_222_8 ?v_2)) (or (= motzkin_222_9 ?v_0) (= motzkin_222_9 ?v_2)) (or (= motzkin_222_10 ?v_0) (= motzkin_222_10 ?v_2)) (or (= motzkin_222_11 ?v_0) (= motzkin_222_11 ?v_2)) (= motzkin_222_12 ?v_2)))))
(assert (let ((?v_0 0.0) (?v_2 1.0) (?v_1 (* motzkin_224_0 (- 1))) (?v_4 (* motzkin_224_5 (- 1))) (?v_3 (* motzkin_224_2 (- 1)))) (let ((?v_5 (+ ?v_3 motzkin_224_3 ?v_4 motzkin_224_6 (* motzkin_224_7 (+ (* ?v_2 delta5) ?v_0)) (* motzkin_224_8 (+ (* (- 1) rank4c) ?v_0)) (* motzkin_224_9 (+ (* (- 1) rank3c) ?v_0)) (* motzkin_224_10 (+ (* (- 1) rank2c) ?v_0)) (* motzkin_224_11 (+ (* (- 1) rank1c) ?v_0)) (* motzkin_224_12 (+ (* (- 1) rank0c) ?v_0)) (* motzkin_224_13 (+ (* ?v_2 si225c) ?v_0))))) (and (>= motzkin_224_0 ?v_0) (>= motzkin_224_1 ?v_0) (>= motzkin_224_2 ?v_0) (>= motzkin_224_3 ?v_0) (>= motzkin_224_4 ?v_0) (>= motzkin_224_5 ?v_0) (>= motzkin_224_6 ?v_0) (>= motzkin_224_7 ?v_0) (>= motzkin_224_8 ?v_0) (>= motzkin_224_9 ?v_0) (>= motzkin_224_10 ?v_0) (>= motzkin_224_11 ?v_0) (>= motzkin_224_12 ?v_0) (>= motzkin_224_13 ?v_0) (= (+ ?v_1 motzkin_224_1 (* motzkin_224_7 (+ (* ?v_2 rank5_Benghazi_x) ?v_0))) ?v_0) (= (+ motzkin_224_0 (* motzkin_224_1 (- 1)) motzkin_224_4 (* motzkin_224_7 (+ (* (- 1) rank5_Benghazi_x) ?v_0)) (* motzkin_224_8 (+ (* (- 1) rank4_Benghazi_x) ?v_0)) (* motzkin_224_9 (+ (* (- 1) rank3_Benghazi_x) ?v_0)) (* motzkin_224_10 (+ (* (- 1) rank2_Benghazi_x) ?v_0)) (* motzkin_224_11 (+ (* (- 1) rank1_Benghazi_x) ?v_0)) (* motzkin_224_12 (+ (* (- 1) rank0_Benghazi_x) ?v_0))) ?v_0) (= (+ ?v_1 motzkin_224_1 (* motzkin_224_7 (+ (* (- 1) rank5_Benghazi_d1) ?v_0)) (* motzkin_224_8 (+ (* (- 1) rank4_Benghazi_d1) ?v_0)) (* motzkin_224_9 (+ (* (- 1) rank3_Benghazi_d1) ?v_0)) (* motzkin_224_10 (+ (* (- 1) rank2_Benghazi_d1) ?v_0)) (* motzkin_224_11 (+ (* (- 1) rank1_Benghazi_d1) ?v_0)) (* motzkin_224_12 (+ (* (- 1) rank0_Benghazi_d1) ?v_0))) ?v_0) (= (+ motzkin_224_2 (* motzkin_224_3 (- 1)) ?v_4 motzkin_224_6 (* motzkin_224_7 (+ (* ?v_2 rank5_Benghazi_d1) ?v_0))) ?v_0) (= (+ ?v_3 motzkin_224_3 (* motzkin_224_7 (+ (* (- 1) rank5_Benghazi_d2) ?v_0)) (* motzkin_224_8 (+ (* (- 1) rank4_Benghazi_d2) ?v_0)) (* motzkin_224_9 (+ (* (- 1) rank3_Benghazi_d2) ?v_0)) (* motzkin_224_10 (+ (* (- 1) rank2_Benghazi_d2) ?v_0)) (* motzkin_224_11 (+ (* (- 1) rank1_Benghazi_d2) ?v_0)) (* motzkin_224_12 (+ (* (- 1) rank0_Benghazi_d2) ?v_0))) ?v_0) (= (+ motzkin_224_5 (* motzkin_224_6 (- 1)) (* motzkin_224_7 (+ (* ?v_2 rank5_Benghazi_d2) ?v_0))) ?v_0) (<= ?v_5 ?v_0) (or (< ?v_5 ?v_0) (> ?v_0 ?v_0)) (or (= motzkin_224_7 ?v_0) (= motzkin_224_7 ?v_2)) (or (= motzkin_224_8 ?v_0) (= motzkin_224_8 ?v_2)) (or (= motzkin_224_9 ?v_0) (= motzkin_224_9 ?v_2)) (or (= motzkin_224_10 ?v_0) (= motzkin_224_10 ?v_2)) (or (= motzkin_224_11 ?v_0) (= motzkin_224_11 ?v_2)) (or (= motzkin_224_12 ?v_0) (= motzkin_224_12 ?v_2)) (= motzkin_224_13 ?v_2)))))
(assert (let ((?v_0 0.0)) (and (>= motzkin_226_0 ?v_0) (>= motzkin_226_1 ?v_0) (<= (* motzkin_226_1 (+ (* (- 1) si213c) ?v_0)) ?v_0) (or (< ?v_0 ?v_0) (> motzkin_226_1 ?v_0)) (= motzkin_226_1 1.0))))
(assert (let ((?v_0 0.0) (?v_4 1.0)) (let ((?v_3 (* motzkin_227_7 (+ (* ?v_4 si213c) ?v_0))) (?v_2 (* motzkin_227_5 (- 1))) (?v_1 (* motzkin_227_2 (- 1)))) (and (>= motzkin_227_0 ?v_0) (>= motzkin_227_1 ?v_0) (>= motzkin_227_2 ?v_0) (>= motzkin_227_3 ?v_0) (>= motzkin_227_4 ?v_0) (>= motzkin_227_5 ?v_0) (>= motzkin_227_6 ?v_0) (>= motzkin_227_7 ?v_0) (>= motzkin_227_8 ?v_0) (= (+ (* motzkin_227_0 (- 1)) motzkin_227_1) ?v_0) (= (+ motzkin_227_0 (* motzkin_227_1 (- 1)) motzkin_227_4) ?v_0) (= (+ motzkin_227_2 (* motzkin_227_3 (- 1)) ?v_2 motzkin_227_6) ?v_0) (= (+ ?v_1 motzkin_227_3) ?v_0) (= (+ motzkin_227_5 (* motzkin_227_6 (- 1))) ?v_0) (<= (+ ?v_1 motzkin_227_3 ?v_2 motzkin_227_6 ?v_3 (* motzkin_227_8 (+ (* (- 1) si213c) ?v_0))) ?v_0) (or (< (+ ?v_1 motzkin_227_3 ?v_2 motzkin_227_6 ?v_3) ?v_0) (> motzkin_227_8 ?v_0)) (or (= motzkin_227_7 ?v_0) (= motzkin_227_7 ?v_4)) (or (= motzkin_227_8 ?v_0) (= motzkin_227_8 ?v_4))))))
(assert (let ((?v_0 0.0)) (and (>= motzkin_228_0 ?v_0) (>= motzkin_228_1 ?v_0) (<= (* motzkin_228_1 (+ (* (- 1) si215c) ?v_0)) ?v_0) (or (< ?v_0 ?v_0) (> motzkin_228_1 ?v_0)) (= motzkin_228_1 1.0))))
(assert (let ((?v_0 0.0) (?v_4 1.0)) (let ((?v_3 (* motzkin_229_7 (+ (* ?v_4 si215c) ?v_0))) (?v_2 (* motzkin_229_5 (- 1))) (?v_1 (* motzkin_229_2 (- 1)))) (and (>= motzkin_229_0 ?v_0) (>= motzkin_229_1 ?v_0) (>= motzkin_229_2 ?v_0) (>= motzkin_229_3 ?v_0) (>= motzkin_229_4 ?v_0) (>= motzkin_229_5 ?v_0) (>= motzkin_229_6 ?v_0) (>= motzkin_229_7 ?v_0) (>= motzkin_229_8 ?v_0) (= (+ (* motzkin_229_0 (- 1)) motzkin_229_1) ?v_0) (= (+ motzkin_229_0 (* motzkin_229_1 (- 1)) motzkin_229_4) ?v_0) (= (+ motzkin_229_2 (* motzkin_229_3 (- 1)) ?v_2 motzkin_229_6) ?v_0) (= (+ ?v_1 motzkin_229_3) ?v_0) (= (+ motzkin_229_5 (* motzkin_229_6 (- 1))) ?v_0) (<= (+ ?v_1 motzkin_229_3 ?v_2 motzkin_229_6 ?v_3 (* motzkin_229_8 (+ (* (- 1) si215c) ?v_0))) ?v_0) (or (< (+ ?v_1 motzkin_229_3 ?v_2 motzkin_229_6 ?v_3) ?v_0) (> motzkin_229_8 ?v_0)) (or (= motzkin_229_7 ?v_0) (= motzkin_229_7 ?v_4)) (or (= motzkin_229_8 ?v_0) (= motzkin_229_8 ?v_4))))))
(assert (let ((?v_0 0.0)) (and (>= motzkin_230_0 ?v_0) (>= motzkin_230_1 ?v_0) (<= (* motzkin_230_1 (+ (* (- 1) si217c) ?v_0)) ?v_0) (or (< ?v_0 ?v_0) (> motzkin_230_1 ?v_0)) (= motzkin_230_1 1.0))))
(assert (let ((?v_0 0.0) (?v_4 1.0)) (let ((?v_3 (* motzkin_231_7 (+ (* ?v_4 si217c) ?v_0))) (?v_2 (* motzkin_231_5 (- 1))) (?v_1 (* motzkin_231_2 (- 1)))) (and (>= motzkin_231_0 ?v_0) (>= motzkin_231_1 ?v_0) (>= motzkin_231_2 ?v_0) (>= motzkin_231_3 ?v_0) (>= motzkin_231_4 ?v_0) (>= motzkin_231_5 ?v_0) (>= motzkin_231_6 ?v_0) (>= motzkin_231_7 ?v_0) (>= motzkin_231_8 ?v_0) (= (+ (* motzkin_231_0 (- 1)) motzkin_231_1) ?v_0) (= (+ motzkin_231_0 (* motzkin_231_1 (- 1)) motzkin_231_4) ?v_0) (= (+ motzkin_231_2 (* motzkin_231_3 (- 1)) ?v_2 motzkin_231_6) ?v_0) (= (+ ?v_1 motzkin_231_3) ?v_0) (= (+ motzkin_231_5 (* motzkin_231_6 (- 1))) ?v_0) (<= (+ ?v_1 motzkin_231_3 ?v_2 motzkin_231_6 ?v_3 (* motzkin_231_8 (+ (* (- 1) si217c) ?v_0))) ?v_0) (or (< (+ ?v_1 motzkin_231_3 ?v_2 motzkin_231_6 ?v_3) ?v_0) (> motzkin_231_8 ?v_0)) (or (= motzkin_231_7 ?v_0) (= motzkin_231_7 ?v_4)) (or (= motzkin_231_8 ?v_0) (= motzkin_231_8 ?v_4))))))
(assert (let ((?v_0 0.0)) (and (>= motzkin_232_0 ?v_0) (>= motzkin_232_1 ?v_0) (<= (* motzkin_232_1 (+ (* (- 1) si219c) ?v_0)) ?v_0) (or (< ?v_0 ?v_0) (> motzkin_232_1 ?v_0)) (= motzkin_232_1 1.0))))
(assert (let ((?v_0 0.0) (?v_4 1.0)) (let ((?v_3 (* motzkin_233_7 (+ (* ?v_4 si219c) ?v_0))) (?v_2 (* motzkin_233_5 (- 1))) (?v_1 (* motzkin_233_2 (- 1)))) (and (>= motzkin_233_0 ?v_0) (>= motzkin_233_1 ?v_0) (>= motzkin_233_2 ?v_0) (>= motzkin_233_3 ?v_0) (>= motzkin_233_4 ?v_0) (>= motzkin_233_5 ?v_0) (>= motzkin_233_6 ?v_0) (>= motzkin_233_7 ?v_0) (>= motzkin_233_8 ?v_0) (= (+ (* motzkin_233_0 (- 1)) motzkin_233_1) ?v_0) (= (+ motzkin_233_0 (* motzkin_233_1 (- 1)) motzkin_233_4) ?v_0) (= (+ motzkin_233_2 (* motzkin_233_3 (- 1)) ?v_2 motzkin_233_6) ?v_0) (= (+ ?v_1 motzkin_233_3) ?v_0) (= (+ motzkin_233_5 (* motzkin_233_6 (- 1))) ?v_0) (<= (+ ?v_1 motzkin_233_3 ?v_2 motzkin_233_6 ?v_3 (* motzkin_233_8 (+ (* (- 1) si219c) ?v_0))) ?v_0) (or (< (+ ?v_1 motzkin_233_3 ?v_2 motzkin_233_6 ?v_3) ?v_0) (> motzkin_233_8 ?v_0)) (or (= motzkin_233_7 ?v_0) (= motzkin_233_7 ?v_4)) (or (= motzkin_233_8 ?v_0) (= motzkin_233_8 ?v_4))))))
(assert (let ((?v_0 0.0)) (and (>= motzkin_234_0 ?v_0) (>= motzkin_234_1 ?v_0) (<= (* motzkin_234_1 (+ (* (- 1) si221c) ?v_0)) ?v_0) (or (< ?v_0 ?v_0) (> motzkin_234_1 ?v_0)) (= motzkin_234_1 1.0))))
(assert (let ((?v_0 0.0) (?v_4 1.0)) (let ((?v_3 (* motzkin_235_7 (+ (* ?v_4 si221c) ?v_0))) (?v_2 (* motzkin_235_5 (- 1))) (?v_1 (* motzkin_235_2 (- 1)))) (and (>= motzkin_235_0 ?v_0) (>= motzkin_235_1 ?v_0) (>= motzkin_235_2 ?v_0) (>= motzkin_235_3 ?v_0) (>= motzkin_235_4 ?v_0) (>= motzkin_235_5 ?v_0) (>= motzkin_235_6 ?v_0) (>= motzkin_235_7 ?v_0) (>= motzkin_235_8 ?v_0) (= (+ (* motzkin_235_0 (- 1)) motzkin_235_1) ?v_0) (= (+ motzkin_235_0 (* motzkin_235_1 (- 1)) motzkin_235_4) ?v_0) (= (+ motzkin_235_2 (* motzkin_235_3 (- 1)) ?v_2 motzkin_235_6) ?v_0) (= (+ ?v_1 motzkin_235_3) ?v_0) (= (+ motzkin_235_5 (* motzkin_235_6 (- 1))) ?v_0) (<= (+ ?v_1 motzkin_235_3 ?v_2 motzkin_235_6 ?v_3 (* motzkin_235_8 (+ (* (- 1) si221c) ?v_0))) ?v_0) (or (< (+ ?v_1 motzkin_235_3 ?v_2 motzkin_235_6 ?v_3) ?v_0) (> motzkin_235_8 ?v_0)) (or (= motzkin_235_7 ?v_0) (= motzkin_235_7 ?v_4)) (or (= motzkin_235_8 ?v_0) (= motzkin_235_8 ?v_4))))))
(assert (let ((?v_0 0.0)) (and (>= motzkin_236_0 ?v_0) (>= motzkin_236_1 ?v_0) (<= (* motzkin_236_1 (+ (* (- 1) si223c) ?v_0)) ?v_0) (or (< ?v_0 ?v_0) (> motzkin_236_1 ?v_0)) (= motzkin_236_1 1.0))))
(assert (let ((?v_0 0.0) (?v_4 1.0)) (let ((?v_3 (* motzkin_237_7 (+ (* ?v_4 si223c) ?v_0))) (?v_2 (* motzkin_237_5 (- 1))) (?v_1 (* motzkin_237_2 (- 1)))) (and (>= motzkin_237_0 ?v_0) (>= motzkin_237_1 ?v_0) (>= motzkin_237_2 ?v_0) (>= motzkin_237_3 ?v_0) (>= motzkin_237_4 ?v_0) (>= motzkin_237_5 ?v_0) (>= motzkin_237_6 ?v_0) (>= motzkin_237_7 ?v_0) (>= motzkin_237_8 ?v_0) (= (+ (* motzkin_237_0 (- 1)) motzkin_237_1) ?v_0) (= (+ motzkin_237_0 (* motzkin_237_1 (- 1)) motzkin_237_4) ?v_0) (= (+ motzkin_237_2 (* motzkin_237_3 (- 1)) ?v_2 motzkin_237_6) ?v_0) (= (+ ?v_1 motzkin_237_3) ?v_0) (= (+ motzkin_237_5 (* motzkin_237_6 (- 1))) ?v_0) (<= (+ ?v_1 motzkin_237_3 ?v_2 motzkin_237_6 ?v_3 (* motzkin_237_8 (+ (* (- 1) si223c) ?v_0))) ?v_0) (or (< (+ ?v_1 motzkin_237_3 ?v_2 motzkin_237_6 ?v_3) ?v_0) (> motzkin_237_8 ?v_0)) (or (= motzkin_237_7 ?v_0) (= motzkin_237_7 ?v_4)) (or (= motzkin_237_8 ?v_0) (= motzkin_237_8 ?v_4))))))
(assert (let ((?v_0 0.0)) (and (>= motzkin_238_0 ?v_0) (>= motzkin_238_1 ?v_0) (<= (* motzkin_238_1 (+ (* (- 1) si225c) ?v_0)) ?v_0) (or (< ?v_0 ?v_0) (> motzkin_238_1 ?v_0)) (= motzkin_238_1 1.0))))
(assert (let ((?v_0 0.0) (?v_4 1.0)) (let ((?v_3 (* motzkin_239_7 (+ (* ?v_4 si225c) ?v_0))) (?v_2 (* motzkin_239_5 (- 1))) (?v_1 (* motzkin_239_2 (- 1)))) (and (>= motzkin_239_0 ?v_0) (>= motzkin_239_1 ?v_0) (>= motzkin_239_2 ?v_0) (>= motzkin_239_3 ?v_0) (>= motzkin_239_4 ?v_0) (>= motzkin_239_5 ?v_0) (>= motzkin_239_6 ?v_0) (>= motzkin_239_7 ?v_0) (>= motzkin_239_8 ?v_0) (= (+ (* motzkin_239_0 (- 1)) motzkin_239_1) ?v_0) (= (+ motzkin_239_0 (* motzkin_239_1 (- 1)) motzkin_239_4) ?v_0) (= (+ motzkin_239_2 (* motzkin_239_3 (- 1)) ?v_2 motzkin_239_6) ?v_0) (= (+ ?v_1 motzkin_239_3) ?v_0) (= (+ motzkin_239_5 (* motzkin_239_6 (- 1))) ?v_0) (<= (+ ?v_1 motzkin_239_3 ?v_2 motzkin_239_6 ?v_3 (* motzkin_239_8 (+ (* (- 1) si225c) ?v_0))) ?v_0) (or (< (+ ?v_1 motzkin_239_3 ?v_2 motzkin_239_6 ?v_3) ?v_0) (> motzkin_239_8 ?v_0)) (or (= motzkin_239_7 ?v_0) (= motzkin_239_7 ?v_4)) (or (= motzkin_239_8 ?v_0) (= motzkin_239_8 ?v_4))))))
(check-sat)
(exit)
